c Sudoku solution
p cnf 729 0
164 0
217 0
249 0
275 0
291 0
311 0
335 0
357 0
372 0
398 0
431 0
483 0
497 0
514 0
537 0
625 0
638 0
676 0
699 0
713 0
612 0
523 0
745 0
155 0
141 0
465 0
861 0
887 0
177 0
193 0
233 0
892 0
815 0
582 0
595 0
985 0
788 0
681 0
578 0
474 0
551 0
546 0
569 0
343 0
366 0
962 0
767 0
927 0
721 0
779 0
971 0
873 0
732 0
953 0
859 0
756 0
794 0
996 0
122 0
118 0
416 0
429 0
919 0
828 0
836 0
934 0
844 0
948 0
226 0
324 0
139 0
186 0
284 0
389 0
442 0
458 0
647 0
654 0
663 0
252 0
268 0
